x = 20;
y = 17;
c = 72;
n = 65;

p = [39  29  24  47  39  16  70  71  69  22  36  16  77  66  24  25  67  54  88  50  25  51  10  46  49  56  16  62  29  81  78  29  93  56  62  56  55  98  96  74  34  50  20  91  60  97  89  55  15  66  84  42  30  82  55  77  22  84  58  63  25  48  96  39  96];
w = [6  7  5  2  6  5  7  7  9  9  6  4  3  7  6  10  3  7  3  8  6  2  5  6  2  8  10  1  5  6  4  7  4  7  4  6  4  2  4  6  9  4  5  4  7  3  3  10  1  6  4  2  8  10  3  8  4  2  9  10  6  6  6  8  5];
s = [5  8  9  14  3  10  13  7  6  10  6  7  12  15  11  4  10  16  17  15  16  14  2  13  4  8  15  5  10  6  10  11  3  8  1  6  9  4  14  15  1  3  1  5  16  3  2  8  3  4  2  12  2  12  8  11  3  10  4  5  8  6  17  13  12];
